%BLOCK LATTICE_CART
ang
   15.452988000000001   0.0000000000000000   0.0000000000000000
   0.0000000000000000   17.8433974   0.0000000000000000
   0.0000000000000000   0.0000053000000000  13.9654662999999992
%ENDBLOCK LATTICE_CART

%BLOCK POSITIONS_ABS
ang
O        1.78535848       3.09224249       3.49152167  
O        3.36567899       2.85559513       1.16382548 
O        4.36084737       1.36862630       3.49155408 
O        3.36573488       0.11834494       1.16387723 
O        1.58036434      -0.00002676       3.49152756 
O        0.99517513       1.48697099       1.16381959 
Fe1      -0.00004167       2.97389633      11.31606586 
Fe1      -0.00004610       2.97396189       7.30541218 
Fe2       0.00002335       2.97389963       0.32234516 
Fe2       0.00001812       2.97393799       4.33300198 
O        4.36085648       1.60527802      12.80231133 
O        0.79018099       1.36863067      10.47461515 
O        4.36084737       4.34255522      12.80234374 
O        3.36573488       3.09227387      10.47466689 
O        1.58036434       2.97390217      12.80231722 
O        3.57067313       0.00000652      10.47460925 
Fe1       2.57545633       1.48693187       6.66067102 
Fe1       2.57545190       1.48699743       2.65001735 
Fe2       2.57552135       1.48693516       9.63313483 
Fe2       2.57551612       1.48697353      13.64379165 
O        1.78535848       0.11831356       8.14691650 
O        0.79018099       4.34255960       5.81922031 
O        1.78534937       2.85559076       8.14694891 
O        0.79023688       1.60530940       5.81927206 
O        4.15586234       1.48693771       8.14692239 
O        3.57067313       2.97393545       5.81921442 
Fe1      -0.00004167      -0.00003259       2.00527619 
Fe1      -0.00004610       0.00003296      11.96080702 
Fe2       0.00002335      -0.00002930       4.97774000 
Fe2       0.00001812       0.00000907       8.98839682 
O        4.36085648       7.55313588       3.49152167 
O        0.79018099       7.31648852       1.16382548 
O        1.78534937       5.82951969       3.49155408 
O        0.79023688       4.57923833       1.16387723 
O        4.15586234       4.46086663       3.49152756 
O        3.57067313       5.94786438       1.16381959 
Fe1       2.57545633       7.43478972      11.31606586 
Fe1U       2.57545190       7.43485528       7.30541218 
Fe2       2.57552135       7.43479302       0.32234516 
Fe2       2.57551612       7.43483138       4.33300198 
O        1.78535848       6.06617141      12.80231133 
O        3.36567899       5.82952406      10.47461515 
O        1.78534937       8.80344861      12.80234374 
O        0.79023688       7.55316726      10.47466689 
O        4.15586234       7.43479556      12.80231722 
O        0.99517513       4.46089992      10.47460925
Fe1      -0.00004167       5.94782526       6.66067102
Fe1      -0.00004610       5.94789082       2.65001735
Fe2       0.00002335       5.94782855       9.63313483
Fe2       0.00001812       5.94786692      13.64379165
O        4.36085648       4.57920695       8.14691650
O        3.36567899       8.80345299       5.81922031
O        4.36084737       7.31648415       8.14694891
O        3.36573488       6.06620280       5.81927206
O        1.58036434       5.94783110       8.14692239
O        0.99517513       7.43482884       5.81921442
Fe1       2.57545633       4.46086080       2.00527619
Fe1       2.57545190       4.46092635      11.96080702
Fe2       2.57552135       4.46086409       4.97774000
Fe2       2.57551612       4.46090246       8.98839682
O        1.78535848      12.01402927       3.49152167
O        3.36567899      11.77738192       1.16382548
O        4.36084737      10.29041308       3.49155408
O        3.36573488       9.04013172       1.16387723
O        1.58036434       8.92176002       3.49152756
O        0.99517513      10.40875777       1.16381959
Fe1      -0.00004167      11.89568311      11.31606586
Fe1      -0.00004610      11.89574867       7.30541218
Fe2       0.00002335      11.89568641       0.32234516
Fe2       0.00001812      11.89572478       4.33300198
O        4.36085648      10.52706481      12.80231133
O        0.79018099      10.29041745      10.47461515
O        4.36084737      13.26434200      12.80234374
O        3.36573488      12.01406065      10.47466689
O        1.58036434      11.89568895      12.80231722
O        3.57067313       8.92179331      10.47460925
Fe1       2.57545633      10.40871865       6.66067102
Fe1       2.57545190      10.40878421       2.65001735
Fe2       2.57552135      10.40872195       9.63313483
Fe2       2.57551612      10.40876031      13.64379165
O        1.78535848       9.04010034       8.14691650
O        0.79018099      13.26434638       5.81922031
O        1.78534937      11.77737754       8.14694891
O        0.79023688      10.52709619       5.81927206
O        4.15586234      10.40872449       8.14692239
O        3.57067313      11.89572223       5.81921442
Fe1      -0.00004167       8.92175419       2.00527619
Fe1      -0.00004610       8.92181974      11.96080702
Fe2       0.00002335       8.92175748       4.97774000
Fe2       0.00001812       8.92179585       8.98839682
O        4.36085648      16.47492266       3.49152167
O        0.79018099      16.23827531       1.16382548
O        1.78534937      14.75130647       3.49155408
O        0.79023688      13.50102511       1.16387723
O        4.15586234      13.38265341       3.49152756
O        3.57067313      14.86965116       1.16381959
Fe1       2.57545633      16.35657651      11.31606586
Fe1       2.57545190      16.35664206       7.30541218
Fe2       2.57552135      16.35657980       0.32234516
Fe2       2.57551612      16.35661817       4.33300198
O        1.78535848      14.98795820      12.80231133
O        3.36567899      14.75131084      10.47461515
O        1.78534937      17.72523540      12.80234374
O        0.79023688      16.47495404      10.47466689
O        4.15586234      16.35658234      12.80231722
O        0.99517513      13.38268670      10.47460925
Fe1      -0.00004167      14.86961204       6.66067102
Fe1      -0.00004610      14.86967760       2.65001735
Fe2       0.00002335      14.86961534       9.63313483
Fe2       0.00001812      14.86965370      13.64379165
O        4.36085648      13.50099373       8.14691650
O        3.36567899      17.72523977       5.81922031
O        4.36084737      16.23827093       8.14694891
O        3.36573488      14.98798958       5.81927206
O        1.58036434      14.86961788       8.14692239
O        0.99517513      16.35661562       5.81921442
Fe1       2.57545633      13.38264758       2.00527619
Fe1       2.57545190      13.38271314      11.96080702
Fe2       2.57552135      13.38265087       4.97774000
Fe2       2.57551612      13.38268924       8.98839682
O        6.93635448       3.09224249       3.49152167
O        8.51667499       2.85559513       1.16382548
O        9.51184337       1.36862630       3.49155408
O        8.51673088       0.11834494       1.16387723
O        6.73136034      -0.00002676       3.49152756
O        6.14617113       1.48697099       1.16381959
Fe1       5.15095433       2.97389633      11.31606586
Fe1       5.15094990       2.97396189       7.30541218
Fe2       5.15101935       2.97389963       0.32234516
Fe2       5.15101412       2.97393799       4.33300198
O        9.51185248       1.60527802      12.80231133
O        5.94117699       1.36863067      10.47461515
O        9.51184337       4.34255522      12.80234374
O        8.51673088       3.09227387      10.47466689
O        6.73136034       2.97390217      12.80231722
O        8.72166913       0.00000652      10.47460925
Fe1       7.72645233       1.48693187       6.66067102
Fe1       7.72644790       1.48699743       2.65001735
Fe2       7.72651735       1.48693516       9.63313483
Fe2       7.72651212       1.48697353      13.64379165
O        6.93635448       0.11831356       8.14691650
O        5.94117699       4.34255960       5.81922031
O        6.93634537       2.85559076       8.14694891
O        5.94123288       1.60530940       5.81927206
O        9.30685834       1.48693771       8.14692239
O        8.72166913       2.97393545       5.81921442
Fe1       5.15095433      -0.00003259       2.00527619
Fe1       5.15094990       0.00003296      11.96080702
Fe2       5.15101935      -0.00002930       4.97774000
Fe2       5.15101412       0.00000907       8.98839682
O        9.51185248       7.55313588       3.49152167
O        5.94117699       7.31648852       1.16382548
O        6.93634537       5.82951969       3.49155408
O        5.94123288       4.57923833       1.16387723
O        9.30685834       4.46086663       3.49152756
O        8.72166913       5.94786438       1.16381959
Fe1       7.72645233       7.43478972      11.31606586
Fe1       7.72644790       7.43485528       7.30541218
Fe2       7.72651735       7.43479302       0.32234516
Fe2       7.72651212       7.43483138       4.33300198
O        6.93635448       6.06617141      12.80231133
O        8.51667499       5.82952406      10.47461515
O        6.93634537       8.80344861      12.80234374
O        5.94123288       7.55316726      10.47466689
O        9.30685834       7.43479556      12.80231722
O        6.14617113       4.46089992      10.47460925
Fe1       5.15095433       5.94782526       6.66067102
Fe1       5.15094990       5.94789082       2.65001735
Fe2       5.15101935       5.94782855       9.63313483
Fe2       5.15101412       5.94786692      13.64379165
O        9.51185248       4.57920695       8.14691650
O        8.51667499       8.80345299       5.81922031
O        9.51184337       7.31648415       8.14694891
O        8.51673088       6.06620280       5.81927206
O        6.73136034       5.94783110       8.14692239
O        6.14617113       7.43482884       5.81921442
Fe1       7.72645233       4.46086080       2.00527619
Fe1       7.72644790       4.46092635      11.96080702
Fe2       7.72651735       4.46086409       4.97774000
Fe2       7.72651212       4.46090246       8.98839682
O        6.93635448      12.01402927       3.49152167
O        8.51667499      11.77738192       1.16382548
O        9.51184337      10.29041308       3.49155408
O        8.51673088       9.04013172       1.16387723
O        6.73136034       8.92176002       3.49152756
O        6.14617113      10.40875777       1.16381959
Fe1       5.15095433      11.89568311      11.31606586
Fe1       5.15094990      11.89574867       7.30541218
Fe2       5.15101935      11.89568641       0.32234516
Fe2       5.15101412      11.89572478       4.33300198
O        9.51185248      10.52706481      12.80231133
O        5.94117699      10.29041745      10.47461515
O        9.51184337      13.26434200      12.80234374
O        8.51673088      12.01406065      10.47466689
O        6.73136034      11.89568895      12.80231722
O        8.72166913       8.92179331      10.47460925
Fe1       7.72645233      10.40871865       6.66067102
Fe1       7.72644790      10.40878421       2.65001735
Fe2       7.72651735      10.40872195       9.63313483
Fe2       7.72651212      10.40876031      13.64379165
O        6.93635448       9.04010034       8.14691650
O        5.94117699      13.26434638       5.81922031
O        6.93634537      11.77737754       8.14694891
O        5.94123288      10.52709619       5.81927206
O        9.30685834      10.40872449       8.14692239
O        8.72166913      11.89572223       5.81921442
Fe1       5.15095433       8.92175419       2.00527619
Fe1       5.15094990       8.92181974      11.96080702
Fe2       5.15101935       8.92175748       4.97774000
Fe2       5.15101412       8.92179585       8.98839682
O        9.51185248      16.47492266       3.49152167
O        5.94117699      16.23827531       1.16382548
O        6.93634537      14.75130647       3.49155408
O        5.94123288      13.50102511       1.16387723
O        9.30685834      13.38265341       3.49152756
O        8.72166913      14.86965116       1.16381959
Fe1       7.72645233      16.35657651      11.31606586
Fe1       7.72644790      16.35664206       7.30541218
Fe2       7.72651735      16.35657980       0.32234516
Fe2       7.72651212      16.35661817       4.33300198
O        6.93635448      14.98795820      12.80231133
O        8.51667499      14.75131084      10.47461515
O        6.93634537      17.72523540      12.80234374
O        5.94123288      16.47495404      10.47466689
O        9.30685834      16.35658234      12.80231722
O        6.14617113      13.38268670      10.47460925
Fe1       5.15095433      14.86961204       6.66067102
Fe1       5.15094990      14.86967760       2.65001735
Fe2       5.15101935      14.86961534       9.63313483
Fe2       5.15101412      14.86965370      13.64379165
O        9.51185248      13.50099373       8.14691650
O        8.51667499      17.72523977       5.81922031
O        9.51184337      16.23827093       8.14694891
O        8.51673088      14.98798958       5.81927206
O        6.73136034      14.86961788       8.14692239
O        6.14617113      16.35661562       5.81921442
Fe1       7.72645233      13.38264758       2.00527619
Fe1       7.72644790      13.38271314      11.96080702
Fe2       7.72651735      13.38265087       4.97774000
Fe2       7.72651212      13.38268924       8.98839682
O       12.08735048       3.09224249       3.49152167
O       13.66767099       2.85559513       1.16382548
O       14.66283937       1.36862630       3.49155408
O       13.66772688       0.11834494       1.16387723
O       11.88235634      -0.00002676       3.49152756
O       11.29716713       1.48697099       1.16381959
Fe1      10.30195033       2.97389633      11.31606586
Fe1      10.30194590       2.97396189       7.30541218
Fe2      10.30201535       2.97389963       0.32234516
Fe2      10.30201012       2.97393799       4.33300198
O       14.66284848       1.60527802      12.80231133
O       11.09217299       1.36863067      10.47461515
O       14.66283937       4.34255522      12.80234374
O       13.66772688       3.09227387      10.47466689
O       11.88235634       2.97390217      12.80231722
O       13.87266513       0.00000652      10.47460925
Fe1      12.87744833       1.48693187       6.66067102
Fe1      12.87744390       1.48699743       2.65001735
Fe2      12.87751335       1.48693516       9.63313483
Fe2      12.87750812       1.48697353      13.64379165
O       12.08735048       0.11831356       8.14691650
O       11.09217299       4.34255960       5.81922031
O       12.08734137       2.85559076       8.14694891
O       11.09222888       1.60530940       5.81927206
O       14.45785434       1.48693771       8.14692239
O       13.87266513       2.97393545       5.81921442
Fe1      10.30195033      -0.00003259       2.00527619
Fe1      10.30194590       0.00003296      11.96080702
Fe2      10.30201535      -0.00002930       4.97774000
Fe2      10.30201012       0.00000907       8.98839682
O       14.66284848       7.55313588       3.49152167
O       11.09217299       7.31648852       1.16382548
O       12.08734137       5.82951969       3.49155408
O       11.09222888       4.57923833       1.16387723
O       14.45785434       4.46086663       3.49152756
O       13.87266513       5.94786438       1.16381959
Fe1      12.87744833       7.43478972      11.31606586
Fe1      12.87744390       7.43485528       7.30541218
Fe2      12.87751335       7.43479302       0.32234516
Fe2      12.87750812       7.43483138       4.33300198
O       12.08735048       6.06617141      12.80231133
O       13.66767099       5.82952406      10.47461515
O       12.08734137       8.80344861      12.80234374
O       11.09222888       7.55316726      10.47466689
O       14.45785434       7.43479556      12.80231722
O       11.29716713       4.46089992      10.47460925
Fe1      10.30195033       5.94782526       6.66067102
Fe1      10.30194590       5.94789082       2.65001735
Fe2      10.30201535       5.94782855       9.63313483
Fe2      10.30201012       5.94786692      13.64379165
O       14.66284848       4.57920695       8.14691650
O       13.66767099       8.80345299       5.81922031
O       14.66283937       7.31648415       8.14694891
O       13.66772688       6.06620280       5.81927206
O       11.88235634       5.94783110       8.14692239
O       11.29716713       7.43482884       5.81921442
Fe1      12.87744833       4.46086080       2.00527619
Fe1      12.87744390       4.46092635      11.96080702
Fe2      12.87751335       4.46086409       4.97774000
Fe2      12.87750812       4.46090246       8.98839682
O       12.08735048      12.01402927       3.49152167
O       13.66767099      11.77738192       1.16382548
O       14.66283937      10.29041308       3.49155408
O       13.66772688       9.04013172       1.16387723
O       11.88235634       8.92176002       3.49152756
O       11.29716713      10.40875777       1.16381959
Fe1      10.30195033      11.89568311      11.31606586
Fe1      10.30194590      11.89574867       7.30541218
Fe2      10.30201535      11.89568641       0.32234516
Fe2      10.30201012      11.89572478       4.33300198
O       14.66284848      10.52706481      12.80231133
O       11.09217299      10.29041745      10.47461515
O       14.66283937      13.26434200      12.80234374
O       13.66772688      12.01406065      10.47466689
O       11.88235634      11.89568895      12.80231722
O       13.87266513       8.92179331      10.47460925
Fe1      12.87744833      10.40871865       6.66067102
Fe1      12.87744390      10.40878421       2.65001735
Fe2      12.87751335      10.40872195       9.63313483
Fe2      12.87750812      10.40876031      13.64379165
O       12.08735048       9.04010034       8.14691650
O       11.09217299      13.26434638       5.81922031
O       12.08734137      11.77737754       8.14694891
O       11.09222888      10.52709619       5.81927206
O       14.45785434      10.40872449       8.14692239
O       13.87266513      11.89572223       5.81921442
Fe1      10.30195033       8.92175419       2.00527619
Fe1      10.30194590       8.92181974      11.96080702
Fe2      10.30201535       8.92175748       4.97774000
Fe2      10.30201012       8.92179585       8.98839682
O       14.66284848      16.47492266       3.49152167
O       11.09217299      16.23827531       1.16382548
O       12.08734137      14.75130647       3.49155408
O       11.09222888      13.50102511       1.16387723
O       14.45785434      13.38265341       3.49152756
O       13.87266513      14.86965116       1.16381959
Fe1      12.87744833      16.35657651      11.31606586
Fe1      12.87744390      16.35664206       7.30541218
Fe2      12.87751335      16.35657980       0.32234516
Fe2      12.87750812      16.35661817       4.33300198
O       12.08735048      14.98795820      12.80231133
O       13.66767099      14.75131084      10.47461515
O       12.08734137      17.72523540      12.80234374
O       11.09222888      16.47495404      10.47466689
O       14.45785434      16.35658234      12.80231722
O       11.29716713      13.38268670      10.47460925
Fe1      10.30195033      14.86961204       6.66067102
Fe1      10.30194590      14.86967760       2.65001735
Fe2      10.30201535      14.86961534       9.63313483
Fe2      10.30201012      14.86965370      13.64379165
O       14.66284848      13.50099373       8.14691650
O       13.66767099      17.72523977       5.81922031
O       14.66283937      16.23827093       8.14694891
O       13.66772688      14.98798958       5.81927206
O       11.88235634      14.86961788       8.14692239
O       11.29716713      16.35661562       5.81921442
Fe1      12.87744833      13.38264758       2.00527619
Fe1      12.87744390      13.38271314      11.96080702
Fe2      12.87751335      13.38265087       4.97774000
Fe2      12.87750812      13.38268924       8.98839682
%ENDBLOCK POSITIONS_ABS

%BLOCK SPECIES
    Fe1 Fe 26 13 11.000000
    Fe2 Fe 26 13 11.000000
    Fe1U Fe 26 13 11.000000
    O O 8 4 11.000000
%ENDBLOCK SPECIES

%BLOCK SPECIES_POT
    Fe1 "Fe_NCP19_PBE_OTF.usp"
    Fe1U "Fe_NCP19_PBE_OTF.usp"
    Fe2 "Fe_NCP19_PBE_OTF.usp"
    O "O_NCP19_PBE_OTF.usp"
%ENDBLOCK SPECIES_POT

%BLOCK SPECIES_ATOMIC_SET
    Fe1 "SOLVE conf=3s2 3p6 3d5 4s0 4p0 SPIN=+5 CHARGE=+3"
    Fe1U "SOLVE conf=3s2 3p6 3d5 4s0 4p0 SPIN=+5 CHARGE=+3"
    Fe2 "SOLVE conf=3s2 3p6 3d5 4s0 4p0 SPIN=-5 CHARGE=+3"
    O "SOLVE INIT SPIN=0 CHARGE=-1"
%ENDBLOCK SPECIES_ATOMIC_SET

%block hubbard
Fe1 2 6.0 0.0 -10.0 0.00 0.0
Fe1U 2 6.0 0.0 -10.0 0.00 0.0
Fe2 2 6.0 0.0 -10.0 0.00 0.0
%endblock hubbard


%block species_ldos_groups
Fe1
Fe1U
Fe2
O
%endblock species_ldos_groups

%block species_pdos_groups
Fe1
Fe2
Fe1U
O
Fe1 Fe2
Fe1 O
Fe2 O
%endblock species_pdos_groups

edft:True
EDFT_SMEARING_WIDTH: 1e-05 eV
hubbard_calculating_u : T
cutoff_energy : 950 eV
kernel_cutoff : 1000 bohr
ngwf_threshold_orig : 2e-05
output_detail : VERBOSE
spin_polarized : True
task : SinglePoint
write_denskern : True
write_forces : True
write_hamiltonian : True
write_tightbox_ngwfs : True
read_denskern: T
read_hamiltonian: T
read_tightbox_ngwfs : T
xc_functional : PBE
do_properties: T
zero_total_force : True
write_initial_radial_ngwfs : T
elec_energy_tol           : 1.0e-4 ev 
maxit_palser_mano     : -1
maxit_hotelling            : 0
dos_smear : 0.1 eV
pdos_max_l : 2

