!------------------------------------------------------------------------------!
!--------------------------------- INPUT FILE ---------------------------------!
!------------------------------------------------------------------------------!

cutoff_energy : 1250 eV
do_properties : F
dos_smear : 0.1 eV
edft : True
edft_smearing_width : 1e-05 eV
elec_energy_tol : 1.0e-5 ev
forces_output_detail : verbose
hubbard_calculating_u : T
kernel_cutoff : 1000 bohr
maxit_hotelling : 0
maxit_palser_mano : -1
ngwf_threshold_orig : 2e-05
output_detail : VERBOSE
paw : F
pseudo_path : .
spin_polarized : True
task : SinglePoint
write_denskern : F
write_forces : T
write_hamiltonian : F
write_initial_radial_ngwfs : T
write_tightbox_ngwfs : F
xc_functional : PBE
zero_total_force : True

%BLOCK HUBBARD
Fe1  2 0.0 0.0 -10.0 0.00 0.0
Fe1U 2 0.0 0.0 -10.0 0.00 0.0
Fe2  2 0.0 0.0 -10.0 0.00 0.0
%ENDBLOCK HUBBARD

%BLOCK LATTICE_CART
ang
     15.45298800       0.00000000       0.00000000
      0.00000000      17.84339740       0.00000000
      0.00000000       0.00000530      13.96546630
%ENDBLOCK LATTICE_CART

%BLOCK POSITIONS_ABS
ang
    O     1.785358     3.092242     3.491522
    O     3.365679     2.855595     1.163825
    O     4.360847     1.368626     3.491554
    O     3.365735     0.118345     1.163877
    O     1.580364    -0.000027     3.491528
    O     0.995175     1.486971     1.163820
  Fe1    -0.000042     2.973896    11.316066
  Fe1    -0.000046     2.973962     7.305412
  Fe2     0.000023     2.973900     0.322345
  Fe2     0.000018     2.973938     4.333002
    O     4.360856     1.605278    12.802311
    O     0.790181     1.368631    10.474615
    O     4.360847     4.342555    12.802344
    O     3.365735     3.092274    10.474667
    O     1.580364     2.973902    12.802317
    O     3.570673     0.000007    10.474609
  Fe1     2.575456     1.486932     6.660671
  Fe1     2.575452     1.486997     2.650017
  Fe2     2.575521     1.486935     9.633135
  Fe2     2.575516     1.486974    13.643792
    O     1.785358     0.118314     8.146916
    O     0.790181     4.342560     5.819220
    O     1.785349     2.855591     8.146949
    O     0.790237     1.605309     5.819272
    O     4.155862     1.486938     8.146922
    O     3.570673     2.973935     5.819214
  Fe1    -0.000042    -0.000033     2.005276
  Fe1    -0.000046     0.000033    11.960807
  Fe2     0.000023    -0.000029     4.977740
  Fe2     0.000018     0.000009     8.988397
    O     4.360856     7.553136     3.491522
    O     0.790181     7.316489     1.163825
    O     1.785349     5.829520     3.491554
    O     0.790237     4.579238     1.163877
    O     4.155862     4.460867     3.491528
    O     3.570673     5.947864     1.163820
  Fe1     2.575456     7.434790    11.316066
 Fe1U     2.575452     7.434855     7.305412
  Fe2     2.575521     7.434793     0.322345
  Fe2     2.575516     7.434831     4.333002
    O     1.785358     6.066171    12.802311
    O     3.365679     5.829524    10.474615
    O     1.785349     8.803449    12.802344
    O     0.790237     7.553167    10.474667
    O     4.155862     7.434796    12.802317
    O     0.995175     4.460900    10.474609
  Fe1    -0.000042     5.947825     6.660671
  Fe1    -0.000046     5.947891     2.650017
  Fe2     0.000023     5.947829     9.633135
  Fe2     0.000018     5.947867    13.643792
    O     4.360856     4.579207     8.146916
    O     3.365679     8.803453     5.819220
    O     4.360847     7.316484     8.146949
    O     3.365735     6.066203     5.819272
    O     1.580364     5.947831     8.146922
    O     0.995175     7.434829     5.819214
  Fe1     2.575456     4.460861     2.005276
  Fe1     2.575452     4.460926    11.960807
  Fe2     2.575521     4.460864     4.977740
  Fe2     2.575516     4.460902     8.988397
    O     1.785358    12.014029     3.491522
    O     3.365679    11.777382     1.163825
    O     4.360847    10.290413     3.491554
    O     3.365735     9.040132     1.163877
    O     1.580364     8.921760     3.491528
    O     0.995175    10.408758     1.163820
  Fe1    -0.000042    11.895683    11.316066
  Fe1    -0.000046    11.895749     7.305412
  Fe2     0.000023    11.895686     0.322345
  Fe2     0.000018    11.895725     4.333002
    O     4.360856    10.527065    12.802311
    O     0.790181    10.290417    10.474615
    O     4.360847    13.264342    12.802344
    O     3.365735    12.014061    10.474667
    O     1.580364    11.895689    12.802317
    O     3.570673     8.921793    10.474609
  Fe1     2.575456    10.408719     6.660671
  Fe1     2.575452    10.408784     2.650017
  Fe2     2.575521    10.408722     9.633135
  Fe2     2.575516    10.408760    13.643792
    O     1.785358     9.040100     8.146916
    O     0.790181    13.264346     5.819220
    O     1.785349    11.777378     8.146949
    O     0.790237    10.527096     5.819272
    O     4.155862    10.408724     8.146922
    O     3.570673    11.895722     5.819214
  Fe1    -0.000042     8.921754     2.005276
  Fe1    -0.000046     8.921820    11.960807
  Fe2     0.000023     8.921757     4.977740
  Fe2     0.000018     8.921796     8.988397
    O     4.360856    16.474923     3.491522
    O     0.790181    16.238275     1.163825
    O     1.785349    14.751306     3.491554
    O     0.790237    13.501025     1.163877
    O     4.155862    13.382653     3.491528
    O     3.570673    14.869651     1.163820
  Fe1     2.575456    16.356577    11.316066
  Fe1     2.575452    16.356642     7.305412
  Fe2     2.575521    16.356580     0.322345
  Fe2     2.575516    16.356618     4.333002
    O     1.785358    14.987958    12.802311
    O     3.365679    14.751311    10.474615
    O     1.785349    17.725235    12.802344
    O     0.790237    16.474954    10.474667
    O     4.155862    16.356582    12.802317
    O     0.995175    13.382687    10.474609
  Fe1    -0.000042    14.869612     6.660671
  Fe1    -0.000046    14.869678     2.650017
  Fe2     0.000023    14.869615     9.633135
  Fe2     0.000018    14.869654    13.643792
    O     4.360856    13.500994     8.146916
    O     3.365679    17.725240     5.819220
    O     4.360847    16.238271     8.146949
    O     3.365735    14.987990     5.819272
    O     1.580364    14.869618     8.146922
    O     0.995175    16.356616     5.819214
  Fe1     2.575456    13.382648     2.005276
  Fe1     2.575452    13.382713    11.960807
  Fe2     2.575521    13.382651     4.977740
  Fe2     2.575516    13.382689     8.988397
    O     6.936354     3.092242     3.491522
    O     8.516675     2.855595     1.163825
    O     9.511843     1.368626     3.491554
    O     8.516731     0.118345     1.163877
    O     6.731360    -0.000027     3.491528
    O     6.146171     1.486971     1.163820
  Fe1     5.150954     2.973896    11.316066
  Fe1     5.150950     2.973962     7.305412
  Fe2     5.151019     2.973900     0.322345
  Fe2     5.151014     2.973938     4.333002
    O     9.511852     1.605278    12.802311
    O     5.941177     1.368631    10.474615
    O     9.511843     4.342555    12.802344
    O     8.516731     3.092274    10.474667
    O     6.731360     2.973902    12.802317
    O     8.721669     0.000007    10.474609
  Fe1     7.726452     1.486932     6.660671
  Fe1     7.726448     1.486997     2.650017
  Fe2     7.726517     1.486935     9.633135
  Fe2     7.726512     1.486974    13.643792
    O     6.936354     0.118314     8.146916
    O     5.941177     4.342560     5.819220
    O     6.936345     2.855591     8.146949
    O     5.941233     1.605309     5.819272
    O     9.306858     1.486938     8.146922
    O     8.721669     2.973935     5.819214
  Fe1     5.150954    -0.000033     2.005276
  Fe1     5.150950     0.000033    11.960807
  Fe2     5.151019    -0.000029     4.977740
  Fe2     5.151014     0.000009     8.988397
    O     9.511852     7.553136     3.491522
    O     5.941177     7.316489     1.163825
    O     6.936345     5.829520     3.491554
    O     5.941233     4.579238     1.163877
    O     9.306858     4.460867     3.491528
    O     8.721669     5.947864     1.163820
  Fe1     7.726452     7.434790    11.316066
  Fe1     7.726448     7.434855     7.305412
  Fe2     7.726517     7.434793     0.322345
  Fe2     7.726512     7.434831     4.333002
    O     6.936354     6.066171    12.802311
    O     8.516675     5.829524    10.474615
    O     6.936345     8.803449    12.802344
    O     5.941233     7.553167    10.474667
    O     9.306858     7.434796    12.802317
    O     6.146171     4.460900    10.474609
  Fe1     5.150954     5.947825     6.660671
  Fe1     5.150950     5.947891     2.650017
  Fe2     5.151019     5.947829     9.633135
  Fe2     5.151014     5.947867    13.643792
    O     9.511852     4.579207     8.146916
    O     8.516675     8.803453     5.819220
    O     9.511843     7.316484     8.146949
    O     8.516731     6.066203     5.819272
    O     6.731360     5.947831     8.146922
    O     6.146171     7.434829     5.819214
  Fe1     7.726452     4.460861     2.005276
  Fe1     7.726448     4.460926    11.960807
  Fe2     7.726517     4.460864     4.977740
  Fe2     7.726512     4.460902     8.988397
    O     6.936354    12.014029     3.491522
    O     8.516675    11.777382     1.163825
    O     9.511843    10.290413     3.491554
    O     8.516731     9.040132     1.163877
    O     6.731360     8.921760     3.491528
    O     6.146171    10.408758     1.163820
  Fe1     5.150954    11.895683    11.316066
  Fe1     5.150950    11.895749     7.305412
  Fe2     5.151019    11.895686     0.322345
  Fe2     5.151014    11.895725     4.333002
    O     9.511852    10.527065    12.802311
    O     5.941177    10.290417    10.474615
    O     9.511843    13.264342    12.802344
    O     8.516731    12.014061    10.474667
    O     6.731360    11.895689    12.802317
    O     8.721669     8.921793    10.474609
  Fe1     7.726452    10.408719     6.660671
  Fe1     7.726448    10.408784     2.650017
  Fe2     7.726517    10.408722     9.633135
  Fe2     7.726512    10.408760    13.643792
    O     6.936354     9.040100     8.146916
    O     5.941177    13.264346     5.819220
    O     6.936345    11.777378     8.146949
    O     5.941233    10.527096     5.819272
    O     9.306858    10.408724     8.146922
    O     8.721669    11.895722     5.819214
  Fe1     5.150954     8.921754     2.005276
  Fe1     5.150950     8.921820    11.960807
  Fe2     5.151019     8.921757     4.977740
  Fe2     5.151014     8.921796     8.988397
    O     9.511852    16.474923     3.491522
    O     5.941177    16.238275     1.163825
    O     6.936345    14.751306     3.491554
    O     5.941233    13.501025     1.163877
    O     9.306858    13.382653     3.491528
    O     8.721669    14.869651     1.163820
  Fe1     7.726452    16.356577    11.316066
  Fe1     7.726448    16.356642     7.305412
  Fe2     7.726517    16.356580     0.322345
  Fe2     7.726512    16.356618     4.333002
    O     6.936354    14.987958    12.802311
    O     8.516675    14.751311    10.474615
    O     6.936345    17.725235    12.802344
    O     5.941233    16.474954    10.474667
    O     9.306858    16.356582    12.802317
    O     6.146171    13.382687    10.474609
  Fe1     5.150954    14.869612     6.660671
  Fe1     5.150950    14.869678     2.650017
  Fe2     5.151019    14.869615     9.633135
  Fe2     5.151014    14.869654    13.643792
    O     9.511852    13.500994     8.146916
    O     8.516675    17.725240     5.819220
    O     9.511843    16.238271     8.146949
    O     8.516731    14.987990     5.819272
    O     6.731360    14.869618     8.146922
    O     6.146171    16.356616     5.819214
  Fe1     7.726452    13.382648     2.005276
  Fe1     7.726448    13.382713    11.960807
  Fe2     7.726517    13.382651     4.977740
  Fe2     7.726512    13.382689     8.988397
    O    12.087350     3.092242     3.491522
    O    13.667671     2.855595     1.163825
    O    14.662839     1.368626     3.491554
    O    13.667727     0.118345     1.163877
    O    11.882356    -0.000027     3.491528
    O    11.297167     1.486971     1.163820
  Fe1    10.301950     2.973896    11.316066
  Fe1    10.301946     2.973962     7.305412
  Fe2    10.302015     2.973900     0.322345
  Fe2    10.302010     2.973938     4.333002
    O    14.662848     1.605278    12.802311
    O    11.092173     1.368631    10.474615
    O    14.662839     4.342555    12.802344
    O    13.667727     3.092274    10.474667
    O    11.882356     2.973902    12.802317
    O    13.872665     0.000007    10.474609
  Fe1    12.877448     1.486932     6.660671
  Fe1    12.877444     1.486997     2.650017
  Fe2    12.877513     1.486935     9.633135
  Fe2    12.877508     1.486974    13.643792
    O    12.087350     0.118314     8.146916
    O    11.092173     4.342560     5.819220
    O    12.087341     2.855591     8.146949
    O    11.092229     1.605309     5.819272
    O    14.457854     1.486938     8.146922
    O    13.872665     2.973935     5.819214
  Fe1    10.301950    -0.000033     2.005276
  Fe1    10.301946     0.000033    11.960807
  Fe2    10.302015    -0.000029     4.977740
  Fe2    10.302010     0.000009     8.988397
    O    14.662848     7.553136     3.491522
    O    11.092173     7.316489     1.163825
    O    12.087341     5.829520     3.491554
    O    11.092229     4.579238     1.163877
    O    14.457854     4.460867     3.491528
    O    13.872665     5.947864     1.163820
  Fe1    12.877448     7.434790    11.316066
  Fe1    12.877444     7.434855     7.305412
  Fe2    12.877513     7.434793     0.322345
  Fe2    12.877508     7.434831     4.333002
    O    12.087350     6.066171    12.802311
    O    13.667671     5.829524    10.474615
    O    12.087341     8.803449    12.802344
    O    11.092229     7.553167    10.474667
    O    14.457854     7.434796    12.802317
    O    11.297167     4.460900    10.474609
  Fe1    10.301950     5.947825     6.660671
  Fe1    10.301946     5.947891     2.650017
  Fe2    10.302015     5.947829     9.633135
  Fe2    10.302010     5.947867    13.643792
    O    14.662848     4.579207     8.146916
    O    13.667671     8.803453     5.819220
    O    14.662839     7.316484     8.146949
    O    13.667727     6.066203     5.819272
    O    11.882356     5.947831     8.146922
    O    11.297167     7.434829     5.819214
  Fe1    12.877448     4.460861     2.005276
  Fe1    12.877444     4.460926    11.960807
  Fe2    12.877513     4.460864     4.977740
  Fe2    12.877508     4.460902     8.988397
    O    12.087350    12.014029     3.491522
    O    13.667671    11.777382     1.163825
    O    14.662839    10.290413     3.491554
    O    13.667727     9.040132     1.163877
    O    11.882356     8.921760     3.491528
    O    11.297167    10.408758     1.163820
  Fe1    10.301950    11.895683    11.316066
  Fe1    10.301946    11.895749     7.305412
  Fe2    10.302015    11.895686     0.322345
  Fe2    10.302010    11.895725     4.333002
    O    14.662848    10.527065    12.802311
    O    11.092173    10.290417    10.474615
    O    14.662839    13.264342    12.802344
    O    13.667727    12.014061    10.474667
    O    11.882356    11.895689    12.802317
    O    13.872665     8.921793    10.474609
  Fe1    12.877448    10.408719     6.660671
  Fe1    12.877444    10.408784     2.650017
  Fe2    12.877513    10.408722     9.633135
  Fe2    12.877508    10.408760    13.643792
    O    12.087350     9.040100     8.146916
    O    11.092173    13.264346     5.819220
    O    12.087341    11.777378     8.146949
    O    11.092229    10.527096     5.819272
    O    14.457854    10.408724     8.146922
    O    13.872665    11.895722     5.819214
  Fe1    10.301950     8.921754     2.005276
  Fe1    10.301946     8.921820    11.960807
  Fe2    10.302015     8.921757     4.977740
  Fe2    10.302010     8.921796     8.988397
    O    14.662848    16.474923     3.491522
    O    11.092173    16.238275     1.163825
    O    12.087341    14.751306     3.491554
    O    11.092229    13.501025     1.163877
    O    14.457854    13.382653     3.491528
    O    13.872665    14.869651     1.163820
  Fe1    12.877448    16.356577    11.316066
  Fe1    12.877444    16.356642     7.305412
  Fe2    12.877513    16.356580     0.322345
  Fe2    12.877508    16.356618     4.333002
    O    12.087350    14.987958    12.802311
    O    13.667671    14.751311    10.474615
    O    12.087341    17.725235    12.802344
    O    11.092229    16.474954    10.474667
    O    14.457854    16.356582    12.802317
    O    11.297167    13.382687    10.474609
  Fe1    10.301950    14.869612     6.660671
  Fe1    10.301946    14.869678     2.650017
  Fe2    10.302015    14.869615     9.633135
  Fe2    10.302010    14.869654    13.643792
    O    14.662848    13.500994     8.146916
    O    13.667671    17.725240     5.819220
    O    14.662839    16.238271     8.146949
    O    13.667727    14.987990     5.819272
    O    11.882356    14.869618     8.146922
    O    11.297167    16.356616     5.819214
  Fe1    12.877448    13.382648     2.005276
  Fe1    12.877444    13.382713    11.960807
  Fe2    12.877513    13.382651     4.977740
  Fe2    12.877508    13.382689     8.988397
%ENDBLOCK POSITIONS_ABS

%BLOCK SPECIES
Fe1 Fe 26 13 11.000000
Fe2 Fe 26 13 11.000000
Fe1U Fe 26 13 11.000000
O O 8 4 11.000000
%ENDBLOCK SPECIES

%BLOCK SPECIES_ATOMIC_SET
Fe1 "SOLVE conf=3s2 3p6 3d6 4s2 4p0 INIT SPIN=+5 CHARGE=+3"
Fe1U "SOLVE conf=3s2 3p6 3d6 4s2 4p0 INIT SPIN=+5 CHARGE=+3"
Fe2 "SOLVE conf=3s2 3p6 3d6 4s2 4p0 INIT SPIN=-5 CHARGE=+3"
O "SOLVE INIT SPIN=0 CHARGE=-1"
%ENDBLOCK SPECIES_ATOMIC_SET

%BLOCK SPECIES_LDOS_GROUPS
Fe1
Fe1U
Fe2
O
%ENDBLOCK SPECIES_LDOS_GROUPS

%BLOCK SPECIES_POT
Fe1 "Fe_NCP19_PBE_OTF.usp"
Fe1U "Fe_NCP19_PBE_OTF.usp"
Fe2 "Fe_NCP19_PBE_OTF.usp"
O "O_NCP19_PBE_OTF.usp"
%ENDBLOCK SPECIES_POT

!------------------------------------------------------------------------------!
!-------------------------------- END OF INPUT --------------------------------!
!------------------------------------------------------------------------------!